\* Problem: Unknown *\

Maximize
 obj: + xp_0_0 + xp_0_1 + xp_0_2 + xp_0_3 + xp_0_4 + xp_1_0 + xp_1_1
 + xp_1_2 + xp_2_0 + xp_2_1 + xp_2_2 + xp_2_3 + xp_2_4 + xp_3_0 + xp_3_1
 + xp_4_0 + xp_4_1 + xp_5_0 + xp_5_1 + xp_5_2 + xp_6_0 + xp_6_1 + xp_6_2
 + xp_7_0 + xp_8_0 + xp_8_1 + xp_9_0 + xp_10_0 + xp_10_1 + xp_11_0
 + xp_11_1 + xp_11_2 + xp_11_3 + xp_12_0 + xp_13_0 + xp_13_1 + xp_14_0
 + xp_14_1 + xp_14_2 + xp_15_0 + xp_15_1 + xp_16_0 + xp_17_0 + xp_17_1
 + xp_17_2 + xp_17_3 + xp_17_4 + xp_18_0 + xp_18_1 + xp_18_2 + xp_19_0
 + xp_19_1 + xp_19_2 + xp_19_3 + xp_19_4 + xp_20_0 + xp_20_1 + xp_20_2
 + xp_21_0 + xp_21_1 + xp_21_2 + xp_21_3 + xp_21_4 + xp_22_0 + xp_22_1
 + xp_22_2 + xp_22_3 + xp_23_0 + xp_23_1 + xp_23_2

Subject To
 r_1: 0 xp_0_0 <= 26.0949464012251
 r_2: + xp_18_2 + xp_15_1 + xp_14_2 + xp_5_2 + xp_2_2
 <= 25.8070099524016
 r_3: + xp_21_4 + xp_6_1 <= 27.3778920308483
 r_4: + xp_17_2 + xp_15_0 <= 27.1553784860558
 r_5: + xp_18_0 <= 25.8704453441296
 r_6: + xp_18_1 <= 26.7924528301887
 r_7: + xp_20_2 <= 26.0949464012251
 r_8: + xp_11_1 + xp_6_2 + xp_5_1 + xp_2_3 <= 25.8070099524016
 r_9: + xp_11_3 + xp_3_1 <= 27.3778920308483
 r_10: + xp_3_0 <= 27.1553784860558
 r_11: + xp_18_1 + xp_11_2 <= 25.8704453441296
 r_12: + xp_11_0 <= 26.7924528301887
 r_13: 0 xp_0_0 <= 28.7484662576687
 r_14: + xp_21_3 + xp_19_2 + xp_14_0 + xp_4_1 + xp_0_4 + xp_0_2
 <= 25.8070099524016
 r_15: + xp_21_0 + xp_19_4 <= 27.3778920308483
 r_16: + xp_22_1 + xp_21_1 + xp_14_2 + xp_0_3 + xp_0_1
 <= 27.3778920308483
 r_17: + xp_0_0 <= 25.8704453441296
 r_18: + xp_21_4 + xp_4_0 <= 26.0949464012251
 r_19: + xp_19_0 <= 26.0949464012251
 r_20: + xp_21_2 + xp_19_3 + xp_19_1 + xp_14_1 <= 28.7484662576687
 r_21: + xp_20_1 <= 25.8070099524016
 r_22: + xp_21_3 <= 27.3778920308483
 r_23: + xp_22_2 + xp_17_4 <= 27.3778920308483
 r_24: + xp_23_2 + xp_15_1 + xp_6_2 + xp_0_4 <= 26.9620253164557
 r_25: 0 xp_0_0 <= 28.7484662576687
 r_26: + xp_18_2 + xp_0_2 <= 25.8704453441296
 r_27: + xp_11_1 + xp_4_1 <= 25.8070099524016
 r_28: + xp_19_3 + xp_19_2 + xp_10_1 <= 25.8070099524016
 r_29: 0 xp_0_0 <= 27.3778920308483
 r_30: + xp_2_0 <= 27.3778920308483
 r_31: + xp_6_1 + xp_3_1 + xp_2_4 <= 26.9620253164557
 r_32: + xp_2_1 <= 28.7484662576687
 r_33: + xp_11_3 + xp_2_2 <= 27.3778920308483
 r_34: + xp_19_4 + xp_2_3 <= 27.3778920308483
 r_35: 0 xp_0_0 <= 27.3778920308483
 r_36: + xp_9_0 <= 27.3778920308483
 r_37: + xp_21_1 + xp_13_1 + xp_8_1 <= 26.9620253164557
 r_38: + xp_1_1 <= 29.2984869325997
 r_39: + xp_17_4 + xp_17_3 + xp_14_2 + xp_0_3 <= 27.1553784860558
 r_40: + xp_0_1 <= 25.8704453441296
 r_41: + xp_12_0 + xp_2_4 <= 26.9620253164557
 r_42: + xp_21_1 <= 26.9620253164557
 r_43: + xp_16_0 <= 26.9620253164557
 r_44: + xp_23_2 + xp_23_1 + xp_1_2 <= 29.2984869325997
 r_45: + xp_15_1 + xp_3_1 <= 27.1553784860558
 r_46: + xp_0_4 <= 25.8704453441296
 r_47: + xp_22_3 + xp_13_1 <= 29.2984869325997
 r_48: + xp_13_0 <= 29.2984869325997
 r_49: + xp_17_1 <= 27.1553784860558
 r_50: 0 xp_0_0 <= 25.8704453441296
 r_51: + xp_8_1 + xp_1_1 <= 27.1553784860558
 r_52: + xp_8_0 + xp_1_2 <= 27.1553784860558
 r_53: + xp_1_0 <= 27.1553784860558
 r_54: + xp_0_3 <= 25.8704453441296
 r_55: + xp_14_2 <= 27.1553784860558
 r_56: 0 xp_0_0 <= 27.1553784860558
 r_57: + xp_22_1 <= 25.8704453441296
 r_58: + xp_23_2 + xp_22_2 + xp_17_4 + xp_5_0 <= 25.8704453441296
 r_59: + xp_22_0 + xp_17_3 <= 25.8704453441296
 r_60: + xp_23_1 + xp_6_0 <= 25.8704453441296
 r_61: + xp_23_0 + xp_22_3 + xp_17_1 <= 25.8704453441296
 r_62: + xp_17_0 <= 25.8704453441296
 r_63: + xp_17_2 + xp_11_2 + xp_6_1 + xp_5_2 <= 25.8704453441296
 r_64: + xp_6_2 + xp_5_1 <= 25.8704453441296
 r_65: + xp_20_1 + xp_19_3 + xp_14_1 + xp_10_1 + xp_2_1
 <= 28.7484662576687
 r_66: + xp_21_2 + xp_7_0 <= 28.7484662576687
 r_67: + xp_20_2 + xp_19_1 + xp_10_0 <= 28.7484662576687
 r_68: + xp_20_0 <= 28.7484662576687

Bounds
 0 <= xp_0_0 <= 29.6151925279553
 0 <= xp_0_1 <= 14.8075962639777
 0 <= xp_0_2 <= 4.93586542132588
 0 <= xp_0_3 <= 4.93586542132588
 0 <= xp_0_4 <= 4.93586542132588
 0 <= xp_1_0 <= 21.7311223508079
 0 <= xp_1_1 <= 11.196837952988
 0 <= xp_1_2 <= 0.662553555168127
 0 <= xp_2_0 <= 20.9123338474586
 0 <= xp_2_1 <= 4.93586542132588
 0 <= xp_2_2 <= 1.16887216215503
 0 <= xp_2_3 <= 1.16887216215503
 0 <= xp_2_4 <= 4.93586542132588
 0 <= xp_3_0 <= 24.6793271066294
 0 <= xp_3_1 <= 4.93586542132588
 0 <= xp_4_0 <= 20.8313264241638
 0 <= xp_4_1 <= 4.16626528483275
 0 <= xp_5_0 <= 12.4987958544983
 0 <= xp_5_1 <= 8.3325305696655
 0 <= xp_5_2 <= 4.16626528483275
 0 <= xp_6_0 <= 11.2489162690484
 0 <= xp_6_1 <= 7.49927751269895
 0 <= xp_6_2 <= 3.74963875634948
 0 <= xp_7_0 <= 21.5604228490095
 0 <= xp_8_0 <= 16.1442779787269
 0 <= xp_8_1 <= 3.22885559574538
 0 <= xp_9_0 <= 17.9670190408412
 0 <= xp_10_0 <= 14.9725158673677
 0 <= xp_10_1 <= 2.99450317347354
 0 <= xp_11_0 <= 23.4988951476576
 0 <= xp_11_1 <= 9.87173084265177
 0 <= xp_11_2 <= 4.54238810166863
 0 <= xp_11_3 <= 18.956507045989
 0 <= xp_12_0 <= 16.8733744035726
 0 <= xp_13_0 <= 13.6705579658575
 0 <= xp_13_1 <= 2.73411159317149
 0 <= xp_14_0 <= 7.81174740906141
 0 <= xp_14_1 <= 5.20783160604094
 0 <= xp_14_2 <= 2.60391580302047
 0 <= xp_15_0 <= 12.8893832249513
 0 <= xp_15_1 <= 2.57787664499027
 0 <= xp_16_0 <= 14.8423200772167
 0 <= xp_17_0 <= 26.6525232185166
 0 <= xp_17_1 <= 7.23888593239691
 0 <= xp_17_2 <= 4.93586542132588
 0 <= xp_17_3 <= 2.30302051107102
 0 <= xp_17_4 <= 2.30302051107102
 0 <= xp_18_0 <= 21.7340123000121
 0 <= xp_18_1 <= 12.8980678801601
 0 <= xp_18_2 <= 6.92641603603445
 0 <= xp_19_0 <= 28.5041933878653
 0 <= xp_19_1 <= 1.91243314061795
 0 <= xp_19_2 <= 1.91243314061795
 0 <= xp_19_3 <= 4.93586542132588
 0 <= xp_19_4 <= 3.8248662812359
 0 <= xp_20_0 <= 28.2438018075633
 0 <= xp_20_1 <= 5.34671205140079
 0 <= xp_20_2 <= 6.71810277179281
 0 <= xp_21_0 <= 26.1751337187641
 0 <= xp_21_1 <= 2.99161322426935
 0 <= xp_21_2 <= 2.99161322426935
 0 <= xp_21_3 <= 1.49580661213468
 0 <= xp_21_4 <= 4.93586542132588
 0 <= xp_22_0 <= 27.1501571702947
 0 <= xp_22_1 <= 1.23541503183263
 0 <= xp_22_2 <= 7.40669548499114
 0 <= xp_22_3 <= 1.23541503183263
 0 <= xp_23_0 <= 18.5138413594755
 0 <= xp_23_1 <= 17.2784263276429
 0 <= xp_23_2 <= 1.23541503183263

End
